data;


param d:= 100;
param r:=5;
param p:=0.600000;
param M:=1000;
param U:=
         1         1        1.780249e+00
         2         1        1.939563e+00
         3         1        9.273181e-01
         4         1        1.321995e+00
         5         1        2.095339e-01
         6         1        1.059546e+00
         7         1        1.992367e-01
         8         1        1.894746e-01
         9         1       -8.163543e-01
        10         1       -1.494625e+00
        11         1       -4.319829e-01
        12         1        1.415177e+00
        13         1       -3.329422e-02
        14         1       -6.854985e-01
        15         1        1.768723e+00
        16         1        1.278142e+00
        17         1       -3.548066e-01
        18         1       -2.267658e-01
        19         1       -8.944300e-01
        20         1        8.766854e-01
        21         1        1.892503e+00
        22         1       -7.353317e-01
        23         1        9.435002e-02
        24         1       -6.988608e-01
        25         1        2.888610e-01
        26         1        1.592092e+00
        27         1        1.247206e+00
        28         1       -1.463759e+00
        29         1        4.303277e-01
        30         1        2.726032e-01
        31         1        1.063036e+00
        32         1        4.391993e-01
        33         1       -4.207361e-01
        34         1       -8.068706e-01
        35         1        1.013863e+00
        36         1       -3.624210e-01
        37         1        1.270504e-01
        38         1       -2.883627e-01
        39         1       -1.335732e+00
        40         1       -2.421943e+00
        41         1        3.979723e-01
        42         1        1.032965e+00
        43         1        4.039923e-01
        44         1        1.143213e+00
        45         1       -9.857930e-01
        46         1       -2.021934e-01
        47         1        1.472648e+00
        48         1        7.175555e-01
        49         1       -7.394635e-02
        50         1        1.538409e+00
        51         1        9.193568e-03
        52         1       -1.662430e+00
        53         1       -4.780816e-01
        54         1       -4.776336e-01
        55         1        6.998376e-01
        56         1        1.044801e+00
        57         1       -7.850263e-01
        58         1        1.215527e+00
        59         1       -1.412763e+00
        60         1        5.662924e-01
        61         1        3.453750e-01
        62         1        1.669225e+00
        63         1       -4.863242e-01
        64         1        1.283297e+00
        65         1        2.555004e-01
        66         1        1.020609e+00
        67         1        4.208236e-01
        68         1        1.530427e-01
        69         1       -8.118801e-02
        70         1       -7.390320e-01
        71         1        6.674998e-01
        72         1       -2.255422e-01
        73         1        7.017949e-01
        74         1        2.890990e-01
        75         1       -1.314704e+00
        76         1       -2.592401e-02
        77         1        2.121843e-01
        78         1       -1.455863e+00
        79         1       -2.557368e+00
        80         1        2.908316e-01
        81         1        5.401264e-01
        82         1        1.794262e-01
        83         1       -6.912436e-01
        84         1       -1.668541e-01
        85         1       -4.572917e-01
        86         1       -5.611191e-01
        87         1        9.014271e-01
        88         1       -5.731897e-01
        89         1       -3.925029e-01
        90         1       -3.409375e-01
        91         1        8.768284e-01
        92         1        1.026532e+00
        93         1        9.385982e-01
        94         1       -1.656324e+00
        95         1       -2.831209e-01
        96         1        1.471824e+00
        97         1       -4.240016e-01
        98         1        5.816203e-01
        99         1        6.447706e-01
       100         1        4.710906e-01
         1         2        1.603473e+00
         2         2       -7.662507e-02
         3         2       -3.894395e-01
         4         2        4.715154e-01
         5         2        2.323112e-01
         6         2        5.613937e-01
         7         2       -1.400379e+00
         8         2        2.090829e+00
         9         2       -6.153375e-01
        10         2        2.025030e+00
        11         2       -4.514753e-01
        12         2        2.587006e-01
        13         2       -1.171685e+00
        14         2       -1.585970e+00
        15         2        1.647536e-01
        16         2       -1.123674e+00
        17         2        8.798865e-01
        18         2        5.678766e-01
        19         2        9.792248e-02
        20         2        9.929051e-02
        21         2        1.044234e-01
        22         2        1.610332e+00
        23         2        7.941938e-01
        24         2        1.144574e+00
        25         2        4.677297e-01
        26         2        3.513754e-01
        27         2        1.262852e-01
        28         2        4.170431e-01
        29         2        2.212911e-01
        30         2        2.949374e-01
        31         2       -1.799170e+00
        32         2        1.599413e-01
        33         2        2.563072e-01
        34         2       -1.530943e+00
        35         2        1.114822e+00
        36         2        1.122666e+00
        37         2        1.042226e+00
        38         2        7.809348e-01
        39         2        2.741815e-01
        40         2       -1.988841e+00
        41         2        2.543751e+00
        42         2       -1.799678e-01
        43         2       -1.536351e+00
        44         2       -1.237534e+00
        45         2       -2.656265e+00
        46         2        1.233724e+00
        47         2        5.558493e-01
        48         2       -2.285797e-01
        49         2        1.783938e-01
        50         2        5.906817e-01
        51         2        9.389287e-01
        52         2       -1.778060e+00
        53         2       -2.116136e-01
        54         2       -2.847050e-01
        55         2        1.438475e+00
        56         2       -9.582874e-01
        57         2        2.616946e-01
        58         2        4.792805e-01
        59         2       -1.185148e+00
        60         2       -8.780756e-01
        61         2       -2.820570e-01
        62         2       -8.810901e-01
        63         2        1.333790e+00
        64         2        1.180622e+00
        65         2        4.570082e-01
        66         2        2.935812e+00
        67         2       -7.701588e-01
        68         2        9.121104e-01
        69         2       -1.596049e+00
        70         2        4.344757e-01
        71         2        1.384965e+00
        72         2        6.437161e-01
        73         2       -7.505097e-01
        74         2       -8.240726e-01
        75         2       -2.087618e-01
        76         2       -3.265922e-01
        77         2       -3.167764e-01
        78         2       -1.584973e-01
        79         2       -1.893651e+00
        80         2       -9.469234e-01
        81         2        1.766255e+00
        82         2       -2.450599e-01
        83         2        2.620711e-01
        84         2        1.161520e+00
        85         2       -2.023348e-01
        86         2        9.291423e-01
        87         2       -1.486056e+00
        88         2        1.423845e-02
        89         2        1.073032e+00
        90         2        9.155277e-01
        91         2       -9.324109e-01
        92         2        4.972673e-01
        93         2        1.054546e+00
        94         2       -4.050042e-01
        95         2        3.677665e-01
        96         2        7.721966e-01
        97         2        8.434104e-01
        98         2        2.033355e-01
        99         2        1.112057e+00
       100         2        3.918364e-01
         1         3       -6.685021e-01
         2         3       -1.466115e+00
         3         3       -6.360829e-01
         4         3       -1.173937e+00
         5         3       -1.215595e+00
         6         3       -1.149950e+00
         7         3        1.938572e+00
         8         3        1.589428e+00
         9         3       -1.456684e+00
        10         3        6.227944e-01
        11         3       -2.880047e-01
        12         3       -3.861958e-01
        13         3       -1.897132e+00
        14         3        1.645596e-01
        15         3       -3.423337e-01
        16         3        1.059207e+00
        17         3        5.536562e-01
        18         3       -5.607182e-02
        19         3        8.121855e-01
        20         3        1.925458e+00
        21         3        4.642325e-01
        22         3       -1.350580e+00
        23         3       -1.298963e+00
        24         3        6.511053e-01
        25         3       -7.079126e-01
        26         3       -1.279852e+00
        27         3        1.284356e+00
        28         3       -9.119354e-01
        29         3       -8.126778e-01
        30         3        1.779001e+00
        31         3       -3.942704e-01
        32         3        1.668290e+00
        33         3        1.223446e+00
        34         3        6.145381e-02
        35         3        8.951037e-01
        36         3        8.523936e-01
        37         3       -4.812164e-01
        38         3        8.099878e-01
        39         3        9.909074e-01
        40         3        2.390860e-01
        41         3       -1.052144e+00
        42         3       -4.137093e-01
        43         3       -1.057587e+00
        44         3        6.124066e-01
        45         3        2.102484e+00
        46         3        1.992378e+00
        47         3        5.188599e-01
        48         3        2.458090e-02
        49         3        2.649938e-01
        50         3        2.229500e+00
        51         3       -1.927712e-01
        52         3       -2.602597e-01
        53         3       -6.637549e-02
        54         3        1.617293e+00
        55         3        1.081098e+00
        56         3        3.946352e-01
        57         3       -7.359336e-01
        58         3        4.572449e-01
        59         3       -9.133878e-01
        60         3       -1.564238e+00
        61         3        1.722018e-01
        62         3        2.014441e+00
        63         3       -3.610296e-01
        64         3       -2.185519e-01
        65         3       -1.624445e+00
        66         3       -1.408377e+00
        67         3        3.891402e-01
        68         3        5.076163e-01
        69         3       -6.237958e-02
        70         3       -1.634362e+00
        71         3        7.030470e-01
        72         3       -8.568214e-01
        73         3       -2.529904e+00
        74         3        3.816263e-01
        75         3       -8.204521e-01
        76         3       -2.433116e+00
        77         3        9.130313e-01
        78         3        2.615279e-02
        79         3       -2.495554e-01
        80         3       -1.132105e+00
        81         3        1.506881e+00
        82         3       -9.583384e-01
        83         3       -1.317511e+00
        84         3       -3.261555e-01
        85         3        2.433236e-01
        86         3       -1.852777e+00
        87         3       -4.506518e-01
        88         3        7.215960e-01
        89         3       -5.117028e-03
        90         3       -6.324615e-02
        91         3        2.376268e-01
        92         3       -6.712157e-04
        93         3        1.195318e-01
        94         3        6.805592e-01
        95         3       -1.085795e+00
        96         3        1.242161e-01
        97         3        9.798704e-01
        98         3       -6.784966e-01
        99         3        1.702331e-01
       100         3        1.178829e+00
         1         4        2.075402e+00
         2         4        7.590228e-01
         3         4        1.015438e+00
         4         4       -3.637920e+00
         5         4        1.441430e+00
         6         4       -4.082811e-01
         7         4       -6.760432e-01
         8         4        1.480407e+00
         9         4        6.826661e-01
        10         4       -1.344381e+00
        11         4        5.016374e-01
        12         4        4.412705e-02
        13         4       -1.709360e+00
        14         4        6.398644e-01
        15         4       -1.014208e+00
        16         4       -5.351665e-01
        17         4       -1.021114e+00
        18         4       -8.506611e-01
        19         4        4.760010e-01
        20         4        7.271804e-02
        21         4       -4.582977e-01
        22         4       -3.895150e-01
        23         4        3.660572e-01
        24         4       -1.149920e+00
        25         4        1.741753e-01
        26         4       -5.220898e-01
        27         4       -5.934389e-01
        28         4        2.000457e+00
        29         4       -2.477475e-01
        30         4        3.345678e-01
        31         4       -1.385903e-01
        32         4       -8.069591e-01
        33         4        1.858988e-01
        34         4       -2.689102e-01
        35         4       -1.218550e+00
        36         4        1.181604e+00
        37         4        1.740954e+00
        38         4       -9.701107e-01
        39         4        7.591147e-01
        40         4        2.500530e-01
        41         4        8.440412e-02
        42         4        4.931722e-01
        43         4       -1.556715e+00
        44         4        1.326241e+00
        45         4        3.197271e-01
        46         4        5.296944e-01
        47         4        2.652163e+00
        48         4       -2.327731e+00
        49         4        1.622652e+00
        50         4       -6.395684e-01
        51         4       -3.925261e-02
        52         4        2.405178e-01
        53         4       -1.599080e+00
        54         4        1.792884e-01
        55         4        6.367440e-01
        56         4        8.064848e-02
        57         4       -1.016580e+00
        58         4       -1.501843e+00
        59         4        8.876760e-01
        60         4       -1.658461e-01
        61         4       -8.845689e-01
        62         4       -6.279650e-01
        63         4       -7.395534e-01
        64         4       -3.304488e-01
        65         4        9.500602e-01
        66         4       -4.240654e-01
        67         4        5.884402e-01
        68         4       -9.355748e-01
        69         4        3.889269e-01
        70         4        3.571793e-02
        71         4       -7.774875e-01
        72         4        2.917786e-02
        73         4       -2.657631e-01
        74         4        2.030046e-01
        75         4       -1.042357e+00
        76         4        1.556781e+00
        77         4        1.885113e-01
        78         4       -9.216275e-01
        79         4       -1.848671e+00
        80         4        1.015584e+00
        81         4        9.734793e-03
        82         4        9.517233e-01
        83         4        6.443130e-02
        84         4        1.089225e+00
        85         4       -1.392065e+00
        86         4       -1.414764e+00
        87         4       -2.579914e-01
        88         4        3.340112e-01
        89         4       -5.282921e-01
        90         4       -1.988049e+00
        91         4        1.062544e+00
        92         4        3.488345e-01
        93         4       -6.650365e-01
        94         4       -1.842685e-01
        95         4        7.228071e-01
        96         4       -4.932249e-01
        97         4       -7.745744e-01
        98         4       -2.899239e-01
        99         4       -7.493990e-01
       100         4        3.100256e-01
         1         5        3.682054e-01
         2         5       -1.130539e+00
         3         5       -4.138752e-02
         4         5        1.483268e+00
         5         5        1.204424e+00
         6         5        2.166746e-01
         7         5        1.590913e+00
         8         5       -1.836713e-02
         9         5       -2.980693e-01
        10         5        1.109656e+00
        11         5        3.541830e-01
        12         5        1.427496e+00
        13         5       -1.221585e+00
        14         5        1.824065e+00
        15         5        3.036123e-01
        16         5        8.145623e-01
        17         5        3.676089e-01
        18         5        1.153510e+00
        19         5       -1.485997e+00
        20         5        1.104620e+00
        21         5       -1.949562e+00
        22         5        7.846471e-01
        23         5        2.698427e-01
        24         5       -1.590880e+00
        25         5        5.046307e-01
        26         5        5.671395e-01
        27         5        2.034145e-01
        28         5        1.003485e-02
        29         5       -2.519548e-01
        30         5       -4.625953e-01
        31         5        7.577662e-01
        32         5       -1.618934e+00
        33         5       -5.890723e-01
        34         5       -9.052901e-01
        35         5        1.451871e+00
        36         5        8.115346e-01
        37         5        2.994056e-02
        38         5        2.859471e-01
        39         5       -1.712154e+00
        40         5        2.265319e+00
        41         5       -9.242967e-01
        42         5        4.247639e-01
        43         5       -4.428704e-01
        44         5        1.029981e+00
        45         5        1.246355e+00
        46         5       -1.042401e+00
        47         5        4.226561e-01
        48         5       -5.580030e-01
        49         5        3.451125e-01
        50         5       -2.675254e-02
        51         5       -9.572992e-01
        52         5       -1.244254e+00
        53         5       -1.837722e+00
        54         5        3.135000e-02
        55         5       -2.045336e+00
        56         5        5.153448e-01
        57         5       -1.081251e+00
        58         5        7.764643e-01
        59         5        9.695334e-01
        60         5       -4.919552e-01
        61         5       -4.162235e-01
        62         5        4.498317e-01
        63         5       -7.139283e-01
        64         5        1.224052e+00
        65         5        1.344730e+00
        66         5        1.680920e+00
        67         5        1.277779e+00
        68         5       -1.339230e+00
        69         5        6.285776e-01
        70         5       -5.134935e-01
        71         5       -5.376258e-02
        72         5        1.877094e+00
        73         5       -4.892830e-01
        74         5       -1.317819e+00
        75         5        9.367382e-01
        76         5        1.101985e+00
        77         5        6.405379e-01
        78         5       -9.167089e-01
        79         5       -1.322956e+00
        80         5       -6.064350e-01
        81         5       -1.286177e+00
        82         5       -2.951958e-01
        83         5       -5.080457e-01
        84         5       -2.377138e+00
        85         5       -5.984645e-01
        86         5        1.098625e+00
        87         5        9.692442e-01
        88         5       -1.311527e+00
        89         5        1.044293e+00
        90         5        6.244694e-01
        91         5        1.479818e+00
        92         5        9.830777e-01
        93         5       -2.667916e-01
        94         5       -1.604063e+00
        95         5       -7.794242e-01
        96         5       -3.457403e-01
        97         5       -1.433439e-02
        98         5        1.970908e-01
        99         5       -5.239934e-01
       100         5       -3.657545e-01
;

param theta:=
    1        4.707446e-01
    2        1.329544e+00
    3       -4.962432e-01
    4       -4.803118e-01
    5        3.198742e-01
;
param X_true:=
    1        2.422610e+00
    2        8.125140e-01
    3       -2.665610e-01
    4        4.053576e+00
    5        7.036646e-01
    6        2.081239e+00
    7       -1.896476e+00
    8        1.363369e+00
    9       -9.027802e-01
   10        2.680395e+00
   11       -7.883379e-01
   12        1.637212e+00
   13       -2.017688e-01
   14       -2.236837e+00
   15        1.805798e+00
   16       -9.003157e-01
   17        1.336118e+00
   18        1.453654e+00
   19       -1.397858e+00
   20       -9.237726e-02
   21        3.958599e-01
   22        2.903147e+00
   23        1.655426e+00
   24        9.131090e-01
   25        1.186904e+00
   26        2.283935e+00
   27        4.677668e-01
   28       -6.396710e-01
   29        9.384788e-01
   30       -6.710277e-01
   31       -1.387047e+00
   32       -5.387411e-01
   33       -7.421328e-01
   34       -2.606200e+00
   35        2.564986e+00
   36        5.910820e-01
   37        8.576701e-01
   38        1.058014e+00
   39       -1.668269e+00
   40       -3.298499e+00
   41        3.755293e+00
   42        3.512825e-01
   43       -7.216026e-01
   44       -1.718642e+00
   45       -4.793914e+00
   46       -3.145056e-02
   47        3.611854e-02
   48        9.612261e-01
   49       -5.981152e-01
   50        7.017956e-01
   51        1.060974e+00
   52       -3.530965e+00
   53       -2.932485e-01
   54       -1.482028e+00
   55        7.453874e-01
   56       -8.519768e-01
   57        4.860010e-01
   58        1.952247e+00
   59       -1.903727e+00
   60       -2.023248e-01
   61       -6.148035e-03
   62       -9.398139e-01
   63        1.850405e+00
   64        2.832511e+00
   65        1.507827e+00
   66        5.824001e+00
   67       -8.928741e-01
   68        1.053817e+00
   69       -2.115022e+00
   70        8.593910e-01
   71        2.162951e+00
   72        1.761288e+00
   73        5.591182e-01
   74       -1.667970e+00
   75        3.109905e-01
   76        3.657514e-01
   77       -6.600219e-01
   78       -7.596099e-01
   79       -3.132961e+00
   80       -1.242049e+00
   81        1.438706e+00
   82       -3.173345e-01
   83        4.833837e-01
   84        3.440467e-01
   85       -1.278365e-01
   86        2.921569e+00
   87       -8.938491e-01
   88       -1.188935e+00
   89        1.832201e+00
   90        2.242761e+00
   91       -9.818365e-01
   92        1.291618e+00
   93        2.018673e+00
   94       -2.080491e+00
   95        2.980122e-01
   96        1.784190e+00
   97        8.029529e-01
   98        1.083136e+00
   99        1.889907e+00
  100       -1.081633e-01
;
param X:=
    1        2.422610e+00
    2        1.285208e+00
    3       -2.665610e-01
    4        3.628994e-01
    5        7.036646e-01
    6       -3.410992e+00
    7        1.458687e+00
    8        1.567410e+00
    9       -9.027802e-01
   10       -1.025906e+00
   11        1.391008e+00
   12        1.637212e+00
   13       -2.017688e-01
   14       -2.236837e+00
   15        1.805798e+00
   16        5.632242e-01
   17        2.564166e-01
   18        2.476371e-01
   19        1.544714e+00
   20        2.970644e-01
   21        1.499510e+00
   22        9.341342e-01
   23        1.655426e+00
   24       -2.763737e-01
   25       -7.274926e-01
   26        1.064660e+00
   27       -7.902758e-01
   28       -5.224177e-01
   29        8.339740e-01
   30       -3.530134e-01
   31       -1.387047e+00
   32       -9.148510e-01
   33       -7.421328e-01
   34        4.509211e-01
   35        2.564986e+00
   36       -2.843363e-01
   37        8.576701e-01
   38       -3.211314e-01
   39        1.252888e-01
   40       -3.298499e+00
   41        2.064505e-02
   42        3.512825e-01
   43       -7.216026e-01
   44        3.253509e+00
   45        4.632187e-01
   46       -1.022978e+00
   47       -2.566972e-02
   48        9.612261e-01
   49       -5.981152e-01
   50        7.017956e-01
   51        1.695139e+00
   52        1.472782e+00
   53       -2.932485e-01
   54       -1.062775e+00
   55        7.453874e-01
   56       -8.519768e-01
   57        1.793896e+00
   58        1.952247e+00
   59       -1.903727e+00
   60       -6.079703e-01
   61        1.618663e+00
   62       -1.297222e+00
   63        3.363674e-01
   64        2.832511e+00
   65        1.002186e-01
   66        5.824001e+00
   67       -1.060553e+00
   68        1.053817e+00
   69       -2.115022e+00
   70        9.483989e-01
   71        2.162951e+00
   72        1.761288e+00
   73        5.591182e-01
   74       -1.667970e+00
   75       -2.097619e-01
   76        1.772387e-01
   77        2.020573e-01
   78       -1.846239e+00
   79       -1.613345e+00
   80       -1.242049e+00
   81        6.730562e-01
   82        6.047003e-01
   83       -7.046089e-01
   84       -7.261119e-01
   85       -1.278365e-01
   86        2.921569e+00
   87       -8.537837e-01
   88       -1.685084e+00
   89       -8.939882e-01
   90       -2.183214e-01
   91       -9.818365e-01
   92        6.645737e-01
   93        4.132628e-01
   94       -1.073450e+00
   95        2.017325e+00
   96        1.784190e+00
   97        8.029529e-01
   98        1.083136e+00
   99        1.765812e+00
  100       -1.081633e-01
;
param outliervec:=
    1    0
    2    1
    3    0
    4    1
    5    0
    6    1
    7    1
    8    1
    9    0
   10    1
   11    1
   12    0
   13    0
   14    0
   15    0
   16    1
   17    1
   18    1
   19    1
   20    1
   21    1
   22    1
   23    0
   24    1
   25    1
   26    1
   27    1
   28    1
   29    1
   30    1
   31    0
   32    1
   33    0
   34    1
   35    0
   36    1
   37    0
   38    1
   39    1
   40    0
   41    1
   42    0
   43    0
   44    1
   45    1
   46    1
   47    1
   48    0
   49    0
   50    0
   51    1
   52    1
   53    0
   54    1
   55    0
   56    0
   57    1
   58    0
   59    0
   60    1
   61    1
   62    1
   63    1
   64    0
   65    1
   66    0
   67    1
   68    0
   69    0
   70    1
   71    0
   72    0
   73    0
   74    0
   75    1
   76    1
   77    1
   78    1
   79    1
   80    0
   81    1
   82    1
   83    1
   84    1
   85    0
   86    0
   87    1
   88    1
   89    1
   90    1
   91    0
   92    1
   93    1
   94    1
   95    1
   96    0
   97    0
   98    0
   99    1
  100    0
;